
(set-logic HORN)
(define-fun Z_1657 () Int 0)
(define-fun S_377 ((x Int)) Int (+ x 1))
(declare-fun diseqInt (Int Int) Bool)
(declare-fun unS_549 (Int Int) Bool)
(declare-fun isZ_347 (Int) Bool)
(declare-fun isS_347 (Int) Bool)
(assert (forall ((x_50577 Int))
	(unS_549 x_50577 (S_377 x_50577))))
(assert (isZ_347 Z_1657))
(assert (forall ((x_50579 Int))
	(isS_347 (S_377 x_50579))))
(assert (forall ((x_50580 Int))
	(diseqInt Z_1657 (S_377 x_50580))))
(assert (forall ((x_50581 Int))
	(diseqInt (S_377 x_50581) Z_1657)))
(assert (forall ((x_50582 Int) (x_50583 Int))
	(=> (diseqInt x_50582 x_50583) (diseqInt (S_377 x_50582) (S_377 x_50583)))))
(declare-fun add_294 (Int Int Int) Bool)
(declare-fun minus_291 (Int Int Int) Bool)
(declare-fun le_274 (Int Int) Bool)
(declare-fun ge_274 (Int Int) Bool)
(declare-fun lt_293 (Int Int) Bool)
(declare-fun gt_277 (Int Int) Bool)
(declare-fun mult_274 (Int Int Int) Bool)
(declare-fun div_274 (Int Int Int) Bool)
(declare-fun mod_276 (Int Int Int) Bool)
(assert (forall ((y_1860 Int))
	(add_294 y_1860 Z_1657 y_1860)))
(assert (forall ((x_50575 Int) (y_1860 Int) (r_342 Int))
	(=> (add_294 r_342 x_50575 y_1860) (add_294 (S_377 r_342) (S_377 x_50575) y_1860))))
(assert (forall ((y_1860 Int))
	(minus_291 Z_1657 Z_1657 y_1860)))
(assert (forall ((x_50575 Int) (y_1860 Int) (r_342 Int))
	(=> (minus_291 r_342 x_50575 y_1860) (minus_291 (S_377 r_342) (S_377 x_50575) y_1860))))
(assert (forall ((y_1860 Int))
	(le_274 Z_1657 y_1860)))
(assert (forall ((x_50575 Int) (y_1860 Int))
	(=> (le_274 x_50575 y_1860) (le_274 (S_377 x_50575) (S_377 y_1860)))))
(assert (forall ((y_1860 Int))
	(ge_274 y_1860 Z_1657)))
(assert (forall ((x_50575 Int) (y_1860 Int))
	(=> (ge_274 x_50575 y_1860) (ge_274 (S_377 x_50575) (S_377 y_1860)))))
(assert (forall ((y_1860 Int))
	(lt_293 Z_1657 (S_377 y_1860))))
(assert (forall ((x_50575 Int) (y_1860 Int))
	(=> (lt_293 x_50575 y_1860) (lt_293 (S_377 x_50575) (S_377 y_1860)))))
(assert (forall ((y_1860 Int))
	(gt_277 (S_377 y_1860) Z_1657)))
(assert (forall ((x_50575 Int) (y_1860 Int))
	(=> (gt_277 x_50575 y_1860) (gt_277 (S_377 x_50575) (S_377 y_1860)))))
(assert (forall ((y_1860 Int))
	(mult_274 Z_1657 Z_1657 y_1860)))
(assert (forall ((x_50575 Int) (y_1860 Int) (r_342 Int) (z_1658 Int))
	(=> (and (mult_274 r_342 x_50575 y_1860) (add_294 z_1658 r_342 y_1860)) (mult_274 z_1658 (S_377 x_50575) y_1860))))
(assert (forall ((x_50575 Int) (y_1860 Int))
	(=> (lt_293 x_50575 y_1860) (div_274 Z_1657 x_50575 y_1860))))
(assert (forall ((x_50575 Int) (y_1860 Int) (r_342 Int) (z_1658 Int))
	(=> (and (ge_274 x_50575 y_1860) (minus_291 z_1658 x_50575 y_1860) (div_274 r_342 z_1658 y_1860)) (div_274 (S_377 r_342) x_50575 y_1860))))
(assert (forall ((x_50575 Int) (y_1860 Int))
	(=> (lt_293 x_50575 y_1860) (mod_276 x_50575 x_50575 y_1860))))
(assert (forall ((x_50575 Int) (y_1860 Int) (r_342 Int) (z_1658 Int))
	(=> (and (ge_274 x_50575 y_1860) (minus_291 z_1658 x_50575 y_1860) (mod_276 r_342 z_1658 y_1860)) (mod_276 r_342 x_50575 y_1860))))
(declare-datatypes ((Bool_274 0)) (((false_274) (true_274))))
(declare-fun diseqBool_129 (Bool_274 Bool_274) Bool)
(declare-fun isfalse_129 (Bool_274) Bool)
(declare-fun istrue_129 (Bool_274) Bool)
(assert (isfalse_129 false_274))
(assert (istrue_129 true_274))
(assert (diseqBool_129 false_274 true_274))
(assert (diseqBool_129 true_274 false_274))
(declare-fun and_274 (Bool_274 Bool_274 Bool_274) Bool)
(declare-fun or_280 (Bool_274 Bool_274 Bool_274) Bool)
(declare-fun hence_274 (Bool_274 Bool_274 Bool_274) Bool)
(declare-fun not_278 (Bool_274 Bool_274) Bool)
(assert (and_274 false_274 false_274 false_274))
(assert (and_274 false_274 true_274 false_274))
(assert (and_274 false_274 false_274 true_274))
(assert (and_274 true_274 true_274 true_274))
(assert (or_280 false_274 false_274 false_274))
(assert (or_280 true_274 true_274 false_274))
(assert (or_280 true_274 false_274 true_274))
(assert (or_280 true_274 true_274 true_274))
(assert (hence_274 true_274 false_274 false_274))
(assert (hence_274 false_274 true_274 false_274))
(assert (hence_274 true_274 false_274 true_274))
(assert (hence_274 true_274 true_274 true_274))
(assert (not_278 true_274 false_274))
(assert (not_278 false_274 true_274))
(declare-datatypes ((list_196 0)) (((nil_222) (cons_196 (head_392 Int) (tail_392 list_196)))))
(declare-fun diseqlist_196 (list_196 list_196) Bool)
(declare-fun head_394 (Int list_196) Bool)
(declare-fun tail_394 (list_196 list_196) Bool)
(declare-fun isnil_222 (list_196) Bool)
(declare-fun iscons_196 (list_196) Bool)
(assert (forall ((x_50587 Int) (x_50588 list_196))
	(head_394 x_50587 (cons_196 x_50587 x_50588))))
(assert (forall ((x_50587 Int) (x_50588 list_196))
	(tail_394 x_50588 (cons_196 x_50587 x_50588))))
(assert (isnil_222 nil_222))
(assert (forall ((x_50590 Int) (x_50591 list_196))
	(iscons_196 (cons_196 x_50590 x_50591))))
(assert (forall ((x_50592 Int) (x_50593 list_196))
	(diseqlist_196 nil_222 (cons_196 x_50592 x_50593))))
(assert (forall ((x_50594 Int) (x_50595 list_196))
	(diseqlist_196 (cons_196 x_50594 x_50595) nil_222)))
(assert (forall ((x_50596 Int) (x_50597 list_196) (x_50598 Int) (x_50599 list_196))
	(=> (diseqInt x_50596 x_50598) (diseqlist_196 (cons_196 x_50596 x_50597) (cons_196 x_50598 x_50599)))))
(assert (forall ((x_50596 Int) (x_50597 list_196) (x_50598 Int) (x_50599 list_196))
	(=> (diseqlist_196 x_50597 x_50599) (diseqlist_196 (cons_196 x_50596 x_50597) (cons_196 x_50598 x_50599)))))
(declare-datatypes ((list_197 0)) (((nil_223) (cons_197 (head_393 list_196) (tail_393 list_197)))))
(declare-fun diseqlist_197 (list_197 list_197) Bool)
(declare-fun head_395 (list_196 list_197) Bool)
(declare-fun tail_395 (list_197 list_197) Bool)
(declare-fun isnil_223 (list_197) Bool)
(declare-fun iscons_197 (list_197) Bool)
(assert (forall ((x_50601 list_196) (x_50602 list_197))
	(head_395 x_50601 (cons_197 x_50601 x_50602))))
(assert (forall ((x_50601 list_196) (x_50602 list_197))
	(tail_395 x_50602 (cons_197 x_50601 x_50602))))
(assert (isnil_223 nil_223))
(assert (forall ((x_50604 list_196) (x_50605 list_197))
	(iscons_197 (cons_197 x_50604 x_50605))))
(assert (forall ((x_50606 list_196) (x_50607 list_197))
	(diseqlist_197 nil_223 (cons_197 x_50606 x_50607))))
(assert (forall ((x_50608 list_196) (x_50609 list_197))
	(diseqlist_197 (cons_197 x_50608 x_50609) nil_223)))
(assert (forall ((x_50610 list_196) (x_50611 list_197) (x_50612 list_196) (x_50613 list_197))
	(=> (diseqlist_196 x_50610 x_50612) (diseqlist_197 (cons_197 x_50610 x_50611) (cons_197 x_50612 x_50613)))))
(assert (forall ((x_50610 list_196) (x_50611 list_197) (x_50612 list_196) (x_50613 list_197))
	(=> (diseqlist_197 x_50611 x_50613) (diseqlist_197 (cons_197 x_50610 x_50611) (cons_197 x_50612 x_50613)))))
(declare-fun risers_5 (list_197 list_196) Bool)
(assert (forall ((ys_172 list_196) (yss_5 list_197) (y_1854 Int) (xs_533 list_196) (y_1853 Int))
	(=> (and (le_274 y_1853 y_1854) (risers_5 (cons_197 ys_172 yss_5) (cons_196 y_1854 xs_533))) (risers_5 (cons_197 (cons_196 y_1853 ys_172) yss_5) (cons_196 y_1853 (cons_196 y_1854 xs_533))))))
(assert (forall ((x_50542 list_197) (y_1854 Int) (xs_533 list_196) (y_1853 Int))
	(=> (and (gt_277 y_1853 y_1854) (risers_5 x_50542 (cons_196 y_1854 xs_533))) (risers_5 (cons_197 (cons_196 y_1853 nil_222) x_50542) (cons_196 y_1853 (cons_196 y_1854 xs_533))))))
(assert (forall ((y_1854 Int) (xs_533 list_196) (y_1853 Int))
	(=> (and (le_274 y_1853 y_1854) (risers_5 nil_223 (cons_196 y_1854 xs_533))) (risers_5 nil_223 (cons_196 y_1853 (cons_196 y_1854 xs_533))))))
(assert (forall ((x_50546 list_197) (y_1854 Int) (xs_533 list_196) (y_1853 Int))
	(=> (and (gt_277 y_1853 y_1854) (risers_5 x_50546 (cons_196 y_1854 xs_533))) (risers_5 (cons_197 (cons_196 y_1853 nil_222) x_50546) (cons_196 y_1853 (cons_196 y_1854 xs_533))))))
(assert (forall ((y_1853 Int))
	(risers_5 (cons_197 (cons_196 y_1853 nil_222) nil_223) (cons_196 y_1853 nil_222))))
(assert (risers_5 nil_223 nil_222))
(declare-fun ordered_19 (Bool_274 list_196) Bool)
(assert (forall ((x_50549 Bool_274) (y_1856 Int) (xs_534 list_196) (y_1855 Int))
	(=> (and (le_274 y_1855 y_1856) (ordered_19 x_50549 (cons_196 y_1856 xs_534))) (ordered_19 x_50549 (cons_196 y_1855 (cons_196 y_1856 xs_534))))))
(assert (forall ((y_1856 Int) (xs_534 list_196) (y_1855 Int))
	(=> (gt_277 y_1855 y_1856) (ordered_19 false_274 (cons_196 y_1855 (cons_196 y_1856 xs_534))))))
(assert (forall ((y_1855 Int))
	(ordered_19 true_274 (cons_196 y_1855 nil_222))))
(assert (ordered_19 true_274 nil_222))
(declare-fun lmerge_13 (list_196 list_196 list_196) Bool)
(assert (forall ((x_50555 list_196) (x_50533 Int) (x_50534 list_196) (z_1655 Int) (x_50532 list_196))
	(=> (and (le_274 z_1655 x_50533) (lmerge_13 x_50555 x_50532 (cons_196 x_50533 x_50534))) (lmerge_13 (cons_196 z_1655 x_50555) (cons_196 z_1655 x_50532) (cons_196 x_50533 x_50534)))))
(assert (forall ((x_50557 list_196) (x_50533 Int) (x_50534 list_196) (z_1655 Int) (x_50532 list_196))
	(=> (and (gt_277 z_1655 x_50533) (lmerge_13 x_50557 (cons_196 z_1655 x_50532) x_50534)) (lmerge_13 (cons_196 x_50533 x_50557) (cons_196 z_1655 x_50532) (cons_196 x_50533 x_50534)))))
(assert (forall ((z_1655 Int) (x_50532 list_196))
	(lmerge_13 (cons_196 z_1655 x_50532) (cons_196 z_1655 x_50532) nil_222)))
(assert (forall ((x_50559 list_196))
	(lmerge_13 x_50559 nil_222 x_50559)))
(declare-fun pairwise_5 (list_197 list_197) Bool)
(assert (forall ((x_50561 list_196) (x_50562 list_197) (ys_173 list_196) (xss_7 list_197) (xs_535 list_196))
	(=> (and (lmerge_13 x_50561 xs_535 ys_173) (pairwise_5 x_50562 xss_7)) (pairwise_5 (cons_197 x_50561 x_50562) (cons_197 xs_535 (cons_197 ys_173 xss_7))))))
(assert (forall ((xs_535 list_196))
	(pairwise_5 (cons_197 xs_535 nil_223) (cons_197 xs_535 nil_223))))
(assert (pairwise_5 nil_223 nil_223))
(declare-fun mergingbu_5 (list_196 list_197) Bool)
(assert (forall ((x_50565 list_196) (x_50566 list_197) (z_1656 list_196) (x_50537 list_197) (xs_536 list_196))
	(=> (and (pairwise_5 x_50566 (cons_197 xs_536 (cons_197 z_1656 x_50537))) (mergingbu_5 x_50565 x_50566)) (mergingbu_5 x_50565 (cons_197 xs_536 (cons_197 z_1656 x_50537))))))
(assert (forall ((x_50568 list_196))
	(mergingbu_5 x_50568 (cons_197 x_50568 nil_223))))
(assert (mergingbu_5 nil_222 nil_223))
(declare-fun msortbu_5 (list_196 list_196) Bool)
(assert (forall ((x_50570 list_196) (x_50571 list_197) (x_50538 list_196))
	(=> (and (risers_5 x_50571 x_50538) (mergingbu_5 x_50570 x_50571)) (msortbu_5 x_50570 x_50538))))
(assert (forall ((x_50573 list_196) (xs_537 list_196))
	(=> (and true (msortbu_5 x_50573 xs_537) (ordered_19 false_274 x_50573)) false)))
(check-sat)
